c Grafo de exemplo para teste do L(p,q)-coloring
c Este é um grafo pequeno para validação inicial
c Formato DIMACS
c
p edge 10 15
e 1 2
e 1 3
e 2 3
e 2 4
e 3 4
e 3 5
e 4 5
e 4 6
e 5 6
e 5 7
e 6 7
e 6 8
e 7 8
e 8 9
e 9 10
